40========================================================================================
s SATISFIABLE
s SATISFIABLE
s SATISFIABLE
s SATISFIABLE
s SATISFIABLE
s SATISFIABLE
s SATISFIABLE
s SATISFIABLE
s SATISFIABLE
s SATISFIABLE
s SATISFIABLE
s SATISFIABLE
s SATISFIABLE
s SATISFIABLE
s SATISFIABLE
s SATISFIABLE
s SATISFIABLE
s SATISFIABLE
s SATISFIABLE
s SATISFIABLE
s SATISFIABLE
s SATISFIABLE
s SATISFIABLE
s SATISFIABLE
s SATISFIABLE
s SATISFIABLE
s SATISFIABLE
s SATISFIABLE
s SATISFIABLE
s SATISFIABLE
s SATISFIABLE
s SATISFIABLE
s SATISFIABLE
s SATISFIABLE
s SATISFIABLE
s SATISFIABLE
s SATISFIABLE
s SATISFIABLE
s SATISFIABLE
s SATISFIABLE
s SATISFIABLE
s SATISFIABLE
s SATISFIABLE
s SATISFIABLE
s SATISFIABLE
s SATISFIABLE
s SATISFIABLE
s SATISFIABLE
s SATISFIABLE
s SATISFIABLE
s SATISFIABLE
s SATISFIABLE
s SATISFIABLE
s SATISFIABLE
s SATISFIABLE
s SATISFIABLE
s SATISFIABLE
s SATISFIABLE
s SATISFIABLE
s SATISFIABLE
s SATISFIABLE
s SATISFIABLE
s SATISFIABLE
s SATISFIABLE
s SATISFIABLE
s SATISFIABLE
s SATISFIABLE
s SATISFIABLE
s SATISFIABLE
s SATISFIABLE
s SATISFIABLE
s SATISFIABLE
s SATISFIABLE
s SATISFIABLE
s SATISFIABLE
s SATISFIABLE
s SATISFIABLE
s SATISFIABLE
s SATISFIABLE
s SATISFIABLE
50========================================================================================
s SATISFIABLE
s SATISFIABLE
s SATISFIABLE
s SATISFIABLE
s SATISFIABLE
s SATISFIABLE
s SATISFIABLE
s SATISFIABLE
s SATISFIABLE
s SATISFIABLE
s SATISFIABLE
s SATISFIABLE
s SATISFIABLE
s SATISFIABLE
s SATISFIABLE
s SATISFIABLE
s SATISFIABLE
s SATISFIABLE
s SATISFIABLE
s SATISFIABLE
s SATISFIABLE
s SATISFIABLE
s SATISFIABLE
s SATISFIABLE
s SATISFIABLE
s SATISFIABLE
s SATISFIABLE
s SATISFIABLE
s SATISFIABLE
s SATISFIABLE
s SATISFIABLE
s SATISFIABLE
s SATISFIABLE
s SATISFIABLE
s SATISFIABLE
s SATISFIABLE
s SATISFIABLE
s SATISFIABLE
s SATISFIABLE
s SATISFIABLE
s SATISFIABLE
s SATISFIABLE
s SATISFIABLE
s SATISFIABLE
s SATISFIABLE
s SATISFIABLE
s SATISFIABLE
s SATISFIABLE
s SATISFIABLE
s SATISFIABLE
s SATISFIABLE
s SATISFIABLE
s SATISFIABLE
s SATISFIABLE
s SATISFIABLE
s SATISFIABLE
s SATISFIABLE
s SATISFIABLE
s SATISFIABLE
s SATISFIABLE
s SATISFIABLE
s SATISFIABLE
s SATISFIABLE
s SATISFIABLE
s SATISFIABLE
s SATISFIABLE
s SATISFIABLE
s SATISFIABLE
s SATISFIABLE
s SATISFIABLE
s SATISFIABLE
s SATISFIABLE
s SATISFIABLE
s SATISFIABLE
s SATISFIABLE
s SATISFIABLE
s SATISFIABLE
s SATISFIABLE
s SATISFIABLE
s SATISFIABLE
60========================================================================================
s SATISFIABLE
s SATISFIABLE
s SATISFIABLE
s SATISFIABLE
s SATISFIABLE
s SATISFIABLE
s SATISFIABLE
s SATISFIABLE
s SATISFIABLE
s SATISFIABLE
s SATISFIABLE
s SATISFIABLE
s SATISFIABLE
s SATISFIABLE
s SATISFIABLE
s SATISFIABLE
s SATISFIABLE
s SATISFIABLE
s SATISFIABLE
s SATISFIABLE
s SATISFIABLE
s SATISFIABLE
s SATISFIABLE
s SATISFIABLE
s SATISFIABLE
s SATISFIABLE
s SATISFIABLE
s SATISFIABLE
s SATISFIABLE
s SATISFIABLE
s SATISFIABLE
s SATISFIABLE
s SATISFIABLE
s SATISFIABLE
s SATISFIABLE
s SATISFIABLE
s SATISFIABLE
s SATISFIABLE
s SATISFIABLE
s SATISFIABLE
s SATISFIABLE
s SATISFIABLE
s SATISFIABLE
s SATISFIABLE
s SATISFIABLE
s SATISFIABLE
s SATISFIABLE
s SATISFIABLE
s SATISFIABLE
s SATISFIABLE
s SATISFIABLE
s SATISFIABLE
s SATISFIABLE
s SATISFIABLE
s SATISFIABLE
s SATISFIABLE
s SATISFIABLE
s SATISFIABLE
s SATISFIABLE
s SATISFIABLE
s SATISFIABLE
s SATISFIABLE
s SATISFIABLE
s SATISFIABLE
s SATISFIABLE
s SATISFIABLE
s SATISFIABLE
s SATISFIABLE
s SATISFIABLE
s SATISFIABLE
s SATISFIABLE
s SATISFIABLE
s SATISFIABLE
s SATISFIABLE
s SATISFIABLE
s SATISFIABLE
s SATISFIABLE
s SATISFIABLE
s SATISFIABLE
s SATISFIABLE
70========================================================================================
s SATISFIABLE
s SATISFIABLE
s SATISFIABLE
s SATISFIABLE
s SATISFIABLE
s SATISFIABLE
s SATISFIABLE
s SATISFIABLE
s SATISFIABLE
s SATISFIABLE
s SATISFIABLE
s SATISFIABLE
s SATISFIABLE
s SATISFIABLE
s SATISFIABLE
s SATISFIABLE
s SATISFIABLE
s SATISFIABLE
s SATISFIABLE
s SATISFIABLE
s SATISFIABLE
s SATISFIABLE
s SATISFIABLE
s SATISFIABLE
s SATISFIABLE
s SATISFIABLE
s SATISFIABLE
s SATISFIABLE
s SATISFIABLE
s SATISFIABLE
s SATISFIABLE
s SATISFIABLE
s SATISFIABLE
s SATISFIABLE
s SATISFIABLE
s SATISFIABLE
s SATISFIABLE
s SATISFIABLE
s SATISFIABLE
s SATISFIABLE
s SATISFIABLE
s SATISFIABLE
s SATISFIABLE
s SATISFIABLE
s SATISFIABLE
s SATISFIABLE
s SATISFIABLE
s SATISFIABLE
s SATISFIABLE
s SATISFIABLE
s SATISFIABLE
s SATISFIABLE
s SATISFIABLE
s SATISFIABLE
s SATISFIABLE
s SATISFIABLE
s SATISFIABLE
s SATISFIABLE
s SATISFIABLE
s SATISFIABLE
s SATISFIABLE
s SATISFIABLE
s SATISFIABLE
s SATISFIABLE
s SATISFIABLE
s SATISFIABLE
s SATISFIABLE
s SATISFIABLE
s SATISFIABLE
s SATISFIABLE
s SATISFIABLE
s SATISFIABLE
s SATISFIABLE
s SATISFIABLE
s SATISFIABLE
s SATISFIABLE
s SATISFIABLE
s SATISFIABLE
s SATISFIABLE
s SATISFIABLE
80========================================================================================
s SATISFIABLE
s SATISFIABLE
s SATISFIABLE
s SATISFIABLE
s SATISFIABLE
s SATISFIABLE
s SATISFIABLE
s SATISFIABLE
s SATISFIABLE
s SATISFIABLE
s SATISFIABLE
s SATISFIABLE
s SATISFIABLE
s SATISFIABLE
s SATISFIABLE
s SATISFIABLE
s SATISFIABLE
s SATISFIABLE
s SATISFIABLE
s SATISFIABLE
s SATISFIABLE
s SATISFIABLE
s SATISFIABLE
s SATISFIABLE
s SATISFIABLE
s SATISFIABLE
s SATISFIABLE
s SATISFIABLE
s SATISFIABLE
s SATISFIABLE
s SATISFIABLE
s SATISFIABLE
s SATISFIABLE
s SATISFIABLE
s SATISFIABLE
s SATISFIABLE
s SATISFIABLE
s SATISFIABLE
s SATISFIABLE
s SATISFIABLE
s SATISFIABLE
s SATISFIABLE
s SATISFIABLE
s SATISFIABLE
s SATISFIABLE
s SATISFIABLE
s SATISFIABLE
s SATISFIABLE
s SATISFIABLE
s SATISFIABLE
s SATISFIABLE
s SATISFIABLE
s SATISFIABLE
s SATISFIABLE
s SATISFIABLE
s SATISFIABLE
s SATISFIABLE
s SATISFIABLE
s SATISFIABLE
s SATISFIABLE
s SATISFIABLE
s SATISFIABLE
s SATISFIABLE
s SATISFIABLE
s SATISFIABLE
s SATISFIABLE
s SATISFIABLE
s SATISFIABLE
s SATISFIABLE
s SATISFIABLE
s SATISFIABLE
s SATISFIABLE
s SATISFIABLE
s SATISFIABLE
s SATISFIABLE
s SATISFIABLE
s SATISFIABLE
s SATISFIABLE
s SATISFIABLE
s SATISFIABLE
90========================================================================================
s SATISFIABLE
s SATISFIABLE
s SATISFIABLE
s SATISFIABLE
s SATISFIABLE
s SATISFIABLE
s SATISFIABLE
s SATISFIABLE
s SATISFIABLE
s SATISFIABLE
s SATISFIABLE
s SATISFIABLE
s SATISFIABLE
s SATISFIABLE
s SATISFIABLE
s SATISFIABLE
s SATISFIABLE
s SATISFIABLE
s SATISFIABLE
s SATISFIABLE
s SATISFIABLE
s SATISFIABLE
s SATISFIABLE
s SATISFIABLE
s SATISFIABLE
s SATISFIABLE
s SATISFIABLE
s SATISFIABLE
s SATISFIABLE
s SATISFIABLE
s SATISFIABLE
s SATISFIABLE
s SATISFIABLE
s SATISFIABLE
s SATISFIABLE
s SATISFIABLE
s SATISFIABLE
s SATISFIABLE
s SATISFIABLE
s SATISFIABLE
s SATISFIABLE
s SATISFIABLE
s SATISFIABLE
s SATISFIABLE
s SATISFIABLE
s SATISFIABLE
s SATISFIABLE
s SATISFIABLE
s SATISFIABLE
s SATISFIABLE
s SATISFIABLE
s SATISFIABLE
s SATISFIABLE
s SATISFIABLE
s SATISFIABLE
s SATISFIABLE
s SATISFIABLE
s SATISFIABLE
s SATISFIABLE
s SATISFIABLE
s SATISFIABLE
s SATISFIABLE
s SATISFIABLE
s SATISFIABLE
s SATISFIABLE
s SATISFIABLE
s SATISFIABLE
s SATISFIABLE
s SATISFIABLE
s SATISFIABLE
s SATISFIABLE
s SATISFIABLE
s SATISFIABLE
s SATISFIABLE
s SATISFIABLE
s SATISFIABLE
s SATISFIABLE
s SATISFIABLE
s SATISFIABLE
s SATISFIABLE
100========================================================================================
s SATISFIABLE
s SATISFIABLE
s SATISFIABLE
s SATISFIABLE
s SATISFIABLE
s SATISFIABLE
s SATISFIABLE
s SATISFIABLE
s SATISFIABLE
s SATISFIABLE
s SATISFIABLE
s SATISFIABLE
s SATISFIABLE
s SATISFIABLE
s SATISFIABLE
s SATISFIABLE
s SATISFIABLE
s SATISFIABLE
s SATISFIABLE
s SATISFIABLE
s SATISFIABLE
s SATISFIABLE
s SATISFIABLE
s SATISFIABLE
s SATISFIABLE
s SATISFIABLE
s SATISFIABLE
s SATISFIABLE
s SATISFIABLE
s SATISFIABLE
s SATISFIABLE
s SATISFIABLE
s SATISFIABLE
s SATISFIABLE
s SATISFIABLE
s SATISFIABLE
s SATISFIABLE
s SATISFIABLE
s SATISFIABLE
s SATISFIABLE
s SATISFIABLE
s SATISFIABLE
s SATISFIABLE
s SATISFIABLE
s SATISFIABLE
s SATISFIABLE
s SATISFIABLE
s SATISFIABLE
s SATISFIABLE
s SATISFIABLE
s SATISFIABLE
s SATISFIABLE
s SATISFIABLE
s SATISFIABLE
s SATISFIABLE
s SATISFIABLE
s SATISFIABLE
s SATISFIABLE
s SATISFIABLE
s SATISFIABLE
s SATISFIABLE
s SATISFIABLE
s SATISFIABLE
s SATISFIABLE
s SATISFIABLE
s SATISFIABLE
s SATISFIABLE
s SATISFIABLE
s SATISFIABLE
s SATISFIABLE
s SATISFIABLE
s SATISFIABLE
s SATISFIABLE
s SATISFIABLE
s SATISFIABLE
s SATISFIABLE
s SATISFIABLE
s SATISFIABLE
s SATISFIABLE
s SATISFIABLE
110========================================================================================
s SATISFIABLE
s SATISFIABLE
s SATISFIABLE
s SATISFIABLE
s SATISFIABLE
s SATISFIABLE
s SATISFIABLE
s SATISFIABLE
s SATISFIABLE
s SATISFIABLE
s SATISFIABLE
s SATISFIABLE
s SATISFIABLE
s SATISFIABLE
s SATISFIABLE
s SATISFIABLE
s SATISFIABLE
s SATISFIABLE
s SATISFIABLE
s SATISFIABLE
s SATISFIABLE
s SATISFIABLE
s SATISFIABLE
s SATISFIABLE
s SATISFIABLE
s SATISFIABLE
s SATISFIABLE
s SATISFIABLE
s SATISFIABLE
s SATISFIABLE
s SATISFIABLE
s SATISFIABLE
s SATISFIABLE
s SATISFIABLE
s SATISFIABLE
s SATISFIABLE
s SATISFIABLE
s SATISFIABLE
s SATISFIABLE
s SATISFIABLE
s SATISFIABLE
s SATISFIABLE
s SATISFIABLE
s SATISFIABLE
s SATISFIABLE
s SATISFIABLE
s SATISFIABLE
s SATISFIABLE
s SATISFIABLE
s SATISFIABLE
s SATISFIABLE
s SATISFIABLE
s SATISFIABLE
s SATISFIABLE
s SATISFIABLE
s SATISFIABLE
s SATISFIABLE
s SATISFIABLE
s SATISFIABLE
s SATISFIABLE
s SATISFIABLE
s SATISFIABLE
s SATISFIABLE
s SATISFIABLE
s SATISFIABLE
s SATISFIABLE
s SATISFIABLE
s SATISFIABLE
s SATISFIABLE
s SATISFIABLE
s SATISFIABLE
s SATISFIABLE
s SATISFIABLE
s SATISFIABLE
s SATISFIABLE
s SATISFIABLE
s SATISFIABLE
s SATISFIABLE
s SATISFIABLE
s SATISFIABLE
120========================================================================================
s SATISFIABLE
s SATISFIABLE
s SATISFIABLE
s SATISFIABLE
s SATISFIABLE
s SATISFIABLE
s SATISFIABLE
s SATISFIABLE
s SATISFIABLE
s SATISFIABLE
s SATISFIABLE
s SATISFIABLE
s SATISFIABLE
s SATISFIABLE
s SATISFIABLE
s SATISFIABLE
s SATISFIABLE
s SATISFIABLE
s SATISFIABLE
s SATISFIABLE
s SATISFIABLE
s SATISFIABLE
s SATISFIABLE
s SATISFIABLE
s SATISFIABLE
s SATISFIABLE
s SATISFIABLE
s SATISFIABLE
s SATISFIABLE
s SATISFIABLE
s SATISFIABLE
s SATISFIABLE
s SATISFIABLE
s SATISFIABLE
s SATISFIABLE
s SATISFIABLE
s SATISFIABLE
s SATISFIABLE
s SATISFIABLE
s SATISFIABLE
s SATISFIABLE
s SATISFIABLE
s SATISFIABLE
s SATISFIABLE
s SATISFIABLE
s SATISFIABLE
s SATISFIABLE
s SATISFIABLE
s SATISFIABLE
s SATISFIABLE
s SATISFIABLE
s SATISFIABLE
s SATISFIABLE
s SATISFIABLE
s SATISFIABLE
s SATISFIABLE
s SATISFIABLE
s SATISFIABLE
s SATISFIABLE
s SATISFIABLE
s SATISFIABLE
s SATISFIABLE
s SATISFIABLE
s SATISFIABLE
s SATISFIABLE
s SATISFIABLE
s SATISFIABLE
s SATISFIABLE
s SATISFIABLE
s SATISFIABLE
s SATISFIABLE
s SATISFIABLE
s SATISFIABLE
s SATISFIABLE
s SATISFIABLE
s SATISFIABLE
s SATISFIABLE
s SATISFIABLE
s SATISFIABLE
s SATISFIABLE
130========================================================================================
s SATISFIABLE
s SATISFIABLE
s SATISFIABLE
s SATISFIABLE
s SATISFIABLE
s SATISFIABLE
s SATISFIABLE
s SATISFIABLE
s SATISFIABLE
s SATISFIABLE
s SATISFIABLE
s SATISFIABLE
s SATISFIABLE
s SATISFIABLE
s SATISFIABLE
s SATISFIABLE
s SATISFIABLE
s SATISFIABLE
s SATISFIABLE
s SATISFIABLE
s SATISFIABLE
s SATISFIABLE
s SATISFIABLE
s SATISFIABLE
s SATISFIABLE
s SATISFIABLE
s SATISFIABLE
s SATISFIABLE
s SATISFIABLE
s SATISFIABLE
s SATISFIABLE
s SATISFIABLE
s SATISFIABLE
s SATISFIABLE
s SATISFIABLE
s SATISFIABLE
s SATISFIABLE
s SATISFIABLE
s SATISFIABLE
s SATISFIABLE
s SATISFIABLE
s SATISFIABLE
s SATISFIABLE
s SATISFIABLE
s SATISFIABLE
s SATISFIABLE
s SATISFIABLE
s SATISFIABLE
s SATISFIABLE
s SATISFIABLE
s SATISFIABLE
s SATISFIABLE
s SATISFIABLE
s SATISFIABLE
s SATISFIABLE
s SATISFIABLE
s SATISFIABLE
s SATISFIABLE
s SATISFIABLE
s SATISFIABLE
s SATISFIABLE
s SATISFIABLE
s SATISFIABLE
s SATISFIABLE
s SATISFIABLE
s SATISFIABLE
s SATISFIABLE
s SATISFIABLE
s SATISFIABLE
s SATISFIABLE
s SATISFIABLE
s SATISFIABLE
s SATISFIABLE
s SATISFIABLE
s SATISFIABLE
s SATISFIABLE
s SATISFIABLE
s SATISFIABLE
s SATISFIABLE
s SATISFIABLE
140========================================================================================
s SATISFIABLE
s SATISFIABLE
s SATISFIABLE
s SATISFIABLE
s SATISFIABLE
s SATISFIABLE
s SATISFIABLE
s SATISFIABLE
s SATISFIABLE
s SATISFIABLE
s SATISFIABLE
s SATISFIABLE
s SATISFIABLE
s SATISFIABLE
s SATISFIABLE
s SATISFIABLE
s SATISFIABLE
s SATISFIABLE
s SATISFIABLE
s SATISFIABLE
s SATISFIABLE
s SATISFIABLE
s SATISFIABLE
s SATISFIABLE
s SATISFIABLE
s SATISFIABLE
s SATISFIABLE
s SATISFIABLE
s SATISFIABLE
s SATISFIABLE
s SATISFIABLE
s SATISFIABLE
s SATISFIABLE
s SATISFIABLE
s SATISFIABLE
s SATISFIABLE
s SATISFIABLE
s SATISFIABLE
s SATISFIABLE
s SATISFIABLE
s SATISFIABLE
s SATISFIABLE
s SATISFIABLE
s SATISFIABLE
s SATISFIABLE
s SATISFIABLE
s SATISFIABLE
s SATISFIABLE
s SATISFIABLE
s SATISFIABLE
s SATISFIABLE
s SATISFIABLE
s SATISFIABLE
s SATISFIABLE
s SATISFIABLE
s SATISFIABLE
s SATISFIABLE
s SATISFIABLE
s SATISFIABLE
s SATISFIABLE
s SATISFIABLE
s SATISFIABLE
s SATISFIABLE
s SATISFIABLE
s SATISFIABLE
s SATISFIABLE
s SATISFIABLE
s SATISFIABLE
s SATISFIABLE
s SATISFIABLE
s SATISFIABLE
s SATISFIABLE
s SATISFIABLE
s SATISFIABLE
s SATISFIABLE
s SATISFIABLE
s SATISFIABLE
s SATISFIABLE
s SATISFIABLE
s SATISFIABLE
150========================================================================================
s SATISFIABLE
s SATISFIABLE
s SATISFIABLE
s SATISFIABLE
s SATISFIABLE
s SATISFIABLE
s SATISFIABLE
s SATISFIABLE
s SATISFIABLE
s SATISFIABLE
s SATISFIABLE
s SATISFIABLE
s SATISFIABLE
s SATISFIABLE
s SATISFIABLE
s SATISFIABLE
s SATISFIABLE
s SATISFIABLE
s SATISFIABLE
s SATISFIABLE
s SATISFIABLE
s SATISFIABLE
s SATISFIABLE
s SATISFIABLE
s SATISFIABLE
s SATISFIABLE
s SATISFIABLE
s SATISFIABLE
s SATISFIABLE
s SATISFIABLE
s SATISFIABLE
s SATISFIABLE
s SATISFIABLE
s SATISFIABLE
s SATISFIABLE
s SATISFIABLE
s SATISFIABLE
s SATISFIABLE
s SATISFIABLE
s SATISFIABLE
s SATISFIABLE
s SATISFIABLE
s SATISFIABLE
s SATISFIABLE
s SATISFIABLE
s SATISFIABLE
s SATISFIABLE
s SATISFIABLE
s SATISFIABLE
s SATISFIABLE
s SATISFIABLE
s SATISFIABLE
s SATISFIABLE
s SATISFIABLE
s SATISFIABLE
s SATISFIABLE
s SATISFIABLE
s SATISFIABLE
s SATISFIABLE
s SATISFIABLE
s SATISFIABLE
s SATISFIABLE
s SATISFIABLE
s SATISFIABLE
s SATISFIABLE
s SATISFIABLE
s SATISFIABLE
s SATISFIABLE
s SATISFIABLE
s SATISFIABLE
s SATISFIABLE
s SATISFIABLE
s SATISFIABLE
s SATISFIABLE
s SATISFIABLE
s SATISFIABLE
s SATISFIABLE
s SATISFIABLE
s SATISFIABLE
s SATISFIABLE
160========================================================================================
s SATISFIABLE
s SATISFIABLE
s SATISFIABLE
s SATISFIABLE
s SATISFIABLE
s SATISFIABLE
s SATISFIABLE
s SATISFIABLE
s SATISFIABLE
s SATISFIABLE
s SATISFIABLE
s SATISFIABLE
s SATISFIABLE
s SATISFIABLE
s SATISFIABLE
s SATISFIABLE
s SATISFIABLE
s SATISFIABLE
s SATISFIABLE
s SATISFIABLE
s SATISFIABLE
s SATISFIABLE
s SATISFIABLE
s SATISFIABLE
s SATISFIABLE
s SATISFIABLE
s SATISFIABLE
s SATISFIABLE
s SATISFIABLE
s SATISFIABLE
s SATISFIABLE
s SATISFIABLE
s SATISFIABLE
s SATISFIABLE
s SATISFIABLE
s SATISFIABLE
s SATISFIABLE
s SATISFIABLE
s SATISFIABLE
s SATISFIABLE
s SATISFIABLE
s SATISFIABLE
s SATISFIABLE
s SATISFIABLE
s SATISFIABLE
s SATISFIABLE
s SATISFIABLE
s SATISFIABLE
s SATISFIABLE
s SATISFIABLE
s SATISFIABLE
s SATISFIABLE
s SATISFIABLE
s SATISFIABLE
s SATISFIABLE
s SATISFIABLE
s SATISFIABLE
s SATISFIABLE
s SATISFIABLE
s SATISFIABLE
s SATISFIABLE
s SATISFIABLE
s SATISFIABLE
s SATISFIABLE
s SATISFIABLE
s SATISFIABLE
s SATISFIABLE
s SATISFIABLE
s SATISFIABLE
s SATISFIABLE
s SATISFIABLE
s SATISFIABLE
s SATISFIABLE
s SATISFIABLE
s SATISFIABLE
s SATISFIABLE
s SATISFIABLE
s SATISFIABLE
s SATISFIABLE
s SATISFIABLE
170========================================================================================
s SATISFIABLE
s SATISFIABLE
s SATISFIABLE
s SATISFIABLE
s SATISFIABLE
s SATISFIABLE
s SATISFIABLE
s SATISFIABLE
s SATISFIABLE
s SATISFIABLE
s SATISFIABLE
s SATISFIABLE
s SATISFIABLE
s SATISFIABLE
s SATISFIABLE
s SATISFIABLE
s SATISFIABLE
s SATISFIABLE
s SATISFIABLE
s SATISFIABLE
s SATISFIABLE
s SATISFIABLE
s SATISFIABLE
s SATISFIABLE
s SATISFIABLE
s SATISFIABLE
s SATISFIABLE
s SATISFIABLE
s SATISFIABLE
s SATISFIABLE
s SATISFIABLE
s SATISFIABLE
s SATISFIABLE
s SATISFIABLE
s SATISFIABLE
s SATISFIABLE
s SATISFIABLE
s SATISFIABLE
s SATISFIABLE
s SATISFIABLE
s SATISFIABLE
s SATISFIABLE
s SATISFIABLE
s SATISFIABLE
s SATISFIABLE
s SATISFIABLE
s SATISFIABLE
s SATISFIABLE
s SATISFIABLE
s SATISFIABLE
s SATISFIABLE
s SATISFIABLE
s SATISFIABLE
s SATISFIABLE
s SATISFIABLE
s SATISFIABLE
s SATISFIABLE
s SATISFIABLE
s SATISFIABLE
s SATISFIABLE
s SATISFIABLE
s SATISFIABLE
s SATISFIABLE
s SATISFIABLE
s SATISFIABLE
s SATISFIABLE
s SATISFIABLE
s SATISFIABLE
s SATISFIABLE
s SATISFIABLE
s SATISFIABLE
s SATISFIABLE
s SATISFIABLE
s SATISFIABLE
s SATISFIABLE
s SATISFIABLE
s SATISFIABLE
s SATISFIABLE
s SATISFIABLE
s SATISFIABLE
180========================================================================================
s SATISFIABLE
s SATISFIABLE
s SATISFIABLE
s SATISFIABLE
s SATISFIABLE
s SATISFIABLE
s SATISFIABLE
s SATISFIABLE
s SATISFIABLE
s SATISFIABLE
s SATISFIABLE
s SATISFIABLE
s SATISFIABLE
s SATISFIABLE
s SATISFIABLE
s SATISFIABLE
s SATISFIABLE
s SATISFIABLE
s SATISFIABLE
s SATISFIABLE
s SATISFIABLE
s SATISFIABLE
s SATISFIABLE
s SATISFIABLE
s SATISFIABLE
s SATISFIABLE
s SATISFIABLE
s SATISFIABLE
s SATISFIABLE
s SATISFIABLE
s SATISFIABLE
s SATISFIABLE
s SATISFIABLE
s SATISFIABLE
s SATISFIABLE
s SATISFIABLE
s SATISFIABLE
s SATISFIABLE
s SATISFIABLE
s SATISFIABLE
s SATISFIABLE
s SATISFIABLE
s SATISFIABLE
s SATISFIABLE
s SATISFIABLE
s SATISFIABLE
s SATISFIABLE
s SATISFIABLE
s SATISFIABLE
s SATISFIABLE
s SATISFIABLE
s SATISFIABLE
s SATISFIABLE
s SATISFIABLE
s SATISFIABLE
s SATISFIABLE
s SATISFIABLE
s SATISFIABLE
s SATISFIABLE
s SATISFIABLE
s SATISFIABLE
s SATISFIABLE
s SATISFIABLE
s SATISFIABLE
s SATISFIABLE
s SATISFIABLE
s SATISFIABLE
s SATISFIABLE
s SATISFIABLE
s SATISFIABLE
s SATISFIABLE
s SATISFIABLE
s SATISFIABLE
s SATISFIABLE
s SATISFIABLE
s SATISFIABLE
s SATISFIABLE
s SATISFIABLE
s SATISFIABLE
s SATISFIABLE
190========================================================================================
s SATISFIABLE
s SATISFIABLE
s SATISFIABLE
s SATISFIABLE
s SATISFIABLE
s SATISFIABLE
s SATISFIABLE
s SATISFIABLE
s SATISFIABLE
s SATISFIABLE
s SATISFIABLE
s SATISFIABLE
s SATISFIABLE
s SATISFIABLE
s SATISFIABLE
s SATISFIABLE
s SATISFIABLE
s SATISFIABLE
s SATISFIABLE
s SATISFIABLE
s SATISFIABLE
s SATISFIABLE
s SATISFIABLE
s SATISFIABLE
s SATISFIABLE
s SATISFIABLE
s SATISFIABLE
s SATISFIABLE
s SATISFIABLE
s SATISFIABLE
s SATISFIABLE
s SATISFIABLE
s SATISFIABLE
s SATISFIABLE
s SATISFIABLE
s SATISFIABLE
s SATISFIABLE
s SATISFIABLE
s SATISFIABLE
s SATISFIABLE
s SATISFIABLE
s SATISFIABLE
s SATISFIABLE
s SATISFIABLE
s SATISFIABLE
s SATISFIABLE
s SATISFIABLE
s SATISFIABLE
s SATISFIABLE
s SATISFIABLE
s SATISFIABLE
s SATISFIABLE
s SATISFIABLE
s SATISFIABLE
s SATISFIABLE
s SATISFIABLE
s SATISFIABLE
s SATISFIABLE
s SATISFIABLE
s SATISFIABLE
s SATISFIABLE
s SATISFIABLE
s SATISFIABLE
s SATISFIABLE
s SATISFIABLE
s SATISFIABLE
s SATISFIABLE
s SATISFIABLE
s SATISFIABLE
s SATISFIABLE
s SATISFIABLE
s SATISFIABLE
s SATISFIABLE
s SATISFIABLE
s SATISFIABLE
s SATISFIABLE
s SATISFIABLE
s SATISFIABLE
s SATISFIABLE
s SATISFIABLE
200========================================================================================
s SATISFIABLE
s SATISFIABLE
s SATISFIABLE
s SATISFIABLE
s SATISFIABLE
s SATISFIABLE
s SATISFIABLE
s SATISFIABLE
s SATISFIABLE
s SATISFIABLE
s SATISFIABLE
s SATISFIABLE
s SATISFIABLE
s SATISFIABLE
s SATISFIABLE
s SATISFIABLE
s SATISFIABLE
s SATISFIABLE
s SATISFIABLE
s SATISFIABLE
s SATISFIABLE
s SATISFIABLE
s SATISFIABLE
s SATISFIABLE
s SATISFIABLE
s SATISFIABLE
s SATISFIABLE
s SATISFIABLE
s SATISFIABLE
s SATISFIABLE
s SATISFIABLE
s SATISFIABLE
s SATISFIABLE
s UNSATISFIABLE
s SATISFIABLE
s SATISFIABLE
s SATISFIABLE
s SATISFIABLE
s SATISFIABLE
s SATISFIABLE
s SATISFIABLE
s SATISFIABLE
s SATISFIABLE
s SATISFIABLE
s SATISFIABLE
s SATISFIABLE
s SATISFIABLE
s SATISFIABLE
s SATISFIABLE
s SATISFIABLE
s SATISFIABLE
s SATISFIABLE
s SATISFIABLE
s SATISFIABLE
s SATISFIABLE
s SATISFIABLE
s SATISFIABLE
s SATISFIABLE
s SATISFIABLE
s SATISFIABLE
s SATISFIABLE
s SATISFIABLE
s SATISFIABLE
s SATISFIABLE
s SATISFIABLE
s SATISFIABLE
s SATISFIABLE
s SATISFIABLE
s SATISFIABLE
s SATISFIABLE
s SATISFIABLE
s SATISFIABLE
s SATISFIABLE
s SATISFIABLE
s SATISFIABLE
s SATISFIABLE
s SATISFIABLE
s SATISFIABLE
s SATISFIABLE
s SATISFIABLE
210========================================================================================
s SATISFIABLE
s SATISFIABLE
s SATISFIABLE
s SATISFIABLE
s SATISFIABLE
s SATISFIABLE
s SATISFIABLE
s SATISFIABLE
s SATISFIABLE
s SATISFIABLE
s SATISFIABLE
s SATISFIABLE
s SATISFIABLE
s SATISFIABLE
s SATISFIABLE
s SATISFIABLE
s SATISFIABLE
s SATISFIABLE
s SATISFIABLE
s SATISFIABLE
s SATISFIABLE
s SATISFIABLE
s SATISFIABLE
s SATISFIABLE
s SATISFIABLE
s SATISFIABLE
s SATISFIABLE
s SATISFIABLE
s SATISFIABLE
s SATISFIABLE
s SATISFIABLE
s SATISFIABLE
s SATISFIABLE
s SATISFIABLE
s SATISFIABLE
s SATISFIABLE
s SATISFIABLE
s SATISFIABLE
s SATISFIABLE
s SATISFIABLE
s SATISFIABLE
s SATISFIABLE
s SATISFIABLE
s SATISFIABLE
s SATISFIABLE
s SATISFIABLE
s SATISFIABLE
s SATISFIABLE
s SATISFIABLE
s SATISFIABLE
s SATISFIABLE
s SATISFIABLE
s SATISFIABLE
s SATISFIABLE
s SATISFIABLE
s SATISFIABLE
s SATISFIABLE
s SATISFIABLE
s SATISFIABLE
s SATISFIABLE
s SATISFIABLE
s SATISFIABLE
s SATISFIABLE
s SATISFIABLE
s SATISFIABLE
s SATISFIABLE
s SATISFIABLE
s SATISFIABLE
s SATISFIABLE
s SATISFIABLE
s SATISFIABLE
s SATISFIABLE
s SATISFIABLE
s SATISFIABLE
s SATISFIABLE
s SATISFIABLE
s SATISFIABLE
s SATISFIABLE
s SATISFIABLE
s SATISFIABLE
220========================================================================================
s SATISFIABLE
s SATISFIABLE
s SATISFIABLE
s SATISFIABLE
s SATISFIABLE
s SATISFIABLE
s SATISFIABLE
s SATISFIABLE
s SATISFIABLE
s SATISFIABLE
s SATISFIABLE
s SATISFIABLE
s SATISFIABLE
s SATISFIABLE
s SATISFIABLE
s SATISFIABLE
s SATISFIABLE
s SATISFIABLE
s SATISFIABLE
s SATISFIABLE
s SATISFIABLE
s SATISFIABLE
s SATISFIABLE
s SATISFIABLE
s SATISFIABLE
s SATISFIABLE
s SATISFIABLE
s SATISFIABLE
s SATISFIABLE
s SATISFIABLE
s SATISFIABLE
s SATISFIABLE
s SATISFIABLE
s SATISFIABLE
s SATISFIABLE
s SATISFIABLE
s SATISFIABLE
s SATISFIABLE
s SATISFIABLE
s SATISFIABLE
s SATISFIABLE
s SATISFIABLE
s SATISFIABLE
s SATISFIABLE
s SATISFIABLE
s SATISFIABLE
s SATISFIABLE
s SATISFIABLE
s SATISFIABLE
s SATISFIABLE
s SATISFIABLE
s SATISFIABLE
s SATISFIABLE
s SATISFIABLE
s SATISFIABLE
s SATISFIABLE
s SATISFIABLE
s SATISFIABLE
s SATISFIABLE
s SATISFIABLE
s SATISFIABLE
s SATISFIABLE
s SATISFIABLE
s SATISFIABLE
s SATISFIABLE
s SATISFIABLE
s SATISFIABLE
s SATISFIABLE
s SATISFIABLE
s SATISFIABLE
s SATISFIABLE
s SATISFIABLE
s SATISFIABLE
s SATISFIABLE
s SATISFIABLE
s SATISFIABLE
s SATISFIABLE
s SATISFIABLE
s SATISFIABLE
s SATISFIABLE
230========================================================================================
s SATISFIABLE
s SATISFIABLE
s SATISFIABLE
s SATISFIABLE
s SATISFIABLE
s SATISFIABLE
s SATISFIABLE
s SATISFIABLE
s SATISFIABLE
s SATISFIABLE
s SATISFIABLE
s SATISFIABLE
s SATISFIABLE
s SATISFIABLE
s SATISFIABLE
s SATISFIABLE
s SATISFIABLE
s SATISFIABLE
s SATISFIABLE
s SATISFIABLE
s SATISFIABLE
s SATISFIABLE
s SATISFIABLE
s SATISFIABLE
s SATISFIABLE
s SATISFIABLE
s SATISFIABLE
s SATISFIABLE
s SATISFIABLE
s SATISFIABLE
s SATISFIABLE
s SATISFIABLE
s SATISFIABLE
s SATISFIABLE
s SATISFIABLE
s SATISFIABLE
s SATISFIABLE
s SATISFIABLE
s SATISFIABLE
s SATISFIABLE
s SATISFIABLE
s SATISFIABLE
s SATISFIABLE
s SATISFIABLE
s SATISFIABLE
s SATISFIABLE
s SATISFIABLE
s SATISFIABLE
s SATISFIABLE
s SATISFIABLE
s SATISFIABLE
s SATISFIABLE
s SATISFIABLE
s SATISFIABLE
s SATISFIABLE
s SATISFIABLE
s SATISFIABLE
s SATISFIABLE
s SATISFIABLE
s SATISFIABLE
s SATISFIABLE
s SATISFIABLE
s SATISFIABLE
s SATISFIABLE
s SATISFIABLE
s UNSATISFIABLE
s SATISFIABLE
s SATISFIABLE
s SATISFIABLE
s SATISFIABLE
s SATISFIABLE
s SATISFIABLE
s SATISFIABLE
s SATISFIABLE
s SATISFIABLE
s SATISFIABLE
s SATISFIABLE
s SATISFIABLE
s SATISFIABLE
s SATISFIABLE
240========================================================================================
s SATISFIABLE
s SATISFIABLE
s SATISFIABLE
s SATISFIABLE
s SATISFIABLE
s SATISFIABLE
s SATISFIABLE
s SATISFIABLE
s SATISFIABLE
s SATISFIABLE
s SATISFIABLE
s SATISFIABLE
s SATISFIABLE
s SATISFIABLE
s SATISFIABLE
s SATISFIABLE
s SATISFIABLE
s SATISFIABLE
s SATISFIABLE
s SATISFIABLE
s SATISFIABLE
s SATISFIABLE
s SATISFIABLE
s SATISFIABLE
s SATISFIABLE
s SATISFIABLE
s SATISFIABLE
s SATISFIABLE
s SATISFIABLE
s SATISFIABLE
s SATISFIABLE
s SATISFIABLE
s SATISFIABLE
s SATISFIABLE
s SATISFIABLE
s SATISFIABLE
s SATISFIABLE
s UNSATISFIABLE
s SATISFIABLE
s UNSATISFIABLE
s SATISFIABLE
s SATISFIABLE
s SATISFIABLE
s SATISFIABLE
s SATISFIABLE
s SATISFIABLE
s SATISFIABLE
s SATISFIABLE
s SATISFIABLE
s SATISFIABLE
s SATISFIABLE
s SATISFIABLE
s SATISFIABLE
s SATISFIABLE
s SATISFIABLE
s SATISFIABLE
s SATISFIABLE
s SATISFIABLE
s SATISFIABLE
s SATISFIABLE
s SATISFIABLE
s SATISFIABLE
s SATISFIABLE
s SATISFIABLE
s SATISFIABLE
s SATISFIABLE
s SATISFIABLE
s SATISFIABLE
s SATISFIABLE
s SATISFIABLE
s SATISFIABLE
s SATISFIABLE
s SATISFIABLE
s SATISFIABLE
s SATISFIABLE
s SATISFIABLE
s SATISFIABLE
s SATISFIABLE
s SATISFIABLE
s SATISFIABLE
